50
150
100
100
99
97
95
94
92
90
88
87
86
85
83
80
79
78
78
78
75
75
74
73
71
70
69
67
65
64
59
58
57
57
55
54
54
52
51
50
49
48
46
46
45
43
43
42
39
38
33
32
